
Gurobi 11.0.3 (linux64) logging started Mon 18 Nov 2024 08:36:42 PM CST

Set parameter LogFile to value "/home/dlcole3/graph_abstraction/hierarchical_graphs/git_storage/CS1/HP_low_reserves/gurobi_logs/serial/logfile_ST9_5.log"

Gurobi 11.0.3 (linux64) logging started Mon 18 Nov 2024 08:43:01 PM CST

Set parameter LogFile to value "/home/dlcole3/graph_abstraction/hierarchical_graphs/git_storage/CS1/HP_low_reserves/gurobi_logs/serial/logfile_ST9_5.log"
Gurobi Optimizer version 11.0.3 build v11.0.3rc0 (linux64 - "Ubuntu 18.04.3 LTS")

CPU model: Intel(R) Xeon(R) CPU E5-2698 v4 @ 2.20GHz, instruction set [SSE2|AVX|AVX2]
Thread count: 40 physical cores, 80 logical processors, using up to 20 threads

Optimize a model with 29168 rows, 50688 columns and 136175 nonzeros
Model fingerprint: 0xc8ad3516
Variable types: 46944 continuous, 3744 integer (3744 binary)
Coefficient statistics:
  Matrix range     [6e-01, 2e+04]
  Objective range  [2e+00, 2e+04]
  Bounds range     [5e-02, 2e+05]
  RHS range        [5e-02, 7e+03]
Presolve removed 14224 rows and 38796 columns
Presolve time: 0.37s
Presolved: 14944 rows, 11892 columns, 63896 nonzeros
Variable types: 8839 continuous, 3053 integer (3053 binary)
Found heuristic solution: objective 175878.86852
Found heuristic solution: objective 167048.41296

Root relaxation: objective 3.300392e+04, 8617 iterations, 0.37 seconds (0.27 work units)

    Nodes    |    Current Node    |     Objective Bounds      |     Work
 Expl Unexpl |  Obj  Depth IntInf | Incumbent    BestBd   Gap | It/Node Time

     0     0 33003.9225    0   18 167048.413 33003.9225  80.2%     -    1s
H    0     0                    125318.23644 33003.9225  73.7%     -    1s
     0     0 33003.9225    0   18 125318.236 33003.9225  73.7%     -    1s
     0     2 33003.9225    0   18 125318.236 33003.9225  73.7%     -    2s
H   31    52                    67473.175155 33004.0157  51.1%   104    2s
H   32    52                    34096.169174 33004.0157  3.20%   101    2s
H  570   179                    33946.830648 33336.1981  1.80%  23.7    3s
H  585   179                    33946.740952 33336.1981  1.80%  23.3    3s
H  658   217                    33874.308897 33336.1981  1.59%  22.1    3s
H  669   217                    33872.778594 33336.1981  1.58%  21.9    3s
H  766   260                    33847.696897 33336.1981  1.51%  20.0    3s
H  821   246                    33847.395684 33336.1981  1.51%  19.5    3s
H  822   246                    33845.983432 33336.1981  1.51%  19.5    3s
H  945   246                    33835.582598 33336.1981  1.48%  18.1    3s
H  967   204                    33835.492897 33336.1981  1.48%  17.8    3s
H  967   204                    33834.916852 33336.1981  1.47%  17.8    3s

Explored 1643 nodes (30308 simplex iterations) in 4.41 seconds (3.26 work units)
Thread count was 20 (of 80 available processors)

Solution count 10: 33834.9 33835.6 33846 ... 125318

Optimal solution found (tolerance 3.00e-03)
Best objective 3.383491685204e+04, best bound 3.382355465142e+04, gap 0.0336%

User-callback calls 4863, time in user-callback 0.00 sec
